p edge 731 696
e 1 2
e 1 3
e 1 4
e 1 5
e 1 6
e 1 7
e 1 8
e 1 9
e 1 10
e 1 11
e 1 12
e 1 13
e 1 14
e 1 15
e 1 16
e 1 17
e 18 19
e 18 20
e 18 21
e 18 22
e 18 23
e 18 24
e 18 25
e 18 26
e 18 27
e 18 28
e 18 29
e 18 30
e 18 31
e 18 32
e 18 33
e 18 34
e 18 35
e 18 36
e 18 37
e 18 38
e 18 39
e 40 41
e 40 42
e 40 43
e 40 44
e 40 45
e 40 46
e 40 47
e 40 48
e 40 49
e 40 50
e 40 51
e 40 52
e 40 53
e 40 54
e 40 55
e 40 56
e 40 57
e 40 58
e 59 60
e 59 61
e 59 62
e 59 63
e 59 64
e 59 65
e 59 66
e 59 67
e 59 68
e 59 69
e 59 70
e 59 71
e 59 72
e 59 73
e 59 74
e 75 76
e 75 77
e 75 78
e 75 79
e 75 80
e 75 81
e 75 82
e 75 83
e 75 84
e 75 85
e 75 86
e 75 87
e 75 88
e 75 89
e 75 90
e 75 91
e 75 92
e 75 93
e 75 94
e 75 95
e 75 96
e 75 97
e 75 98
e 75 99
e 100 101
e 100 102
e 100 103
e 100 104
e 100 105
e 100 106
e 100 107
e 100 108
e 100 109
e 100 110
e 100 111
e 100 112
e 113 114
e 113 115
e 113 116
e 113 117
e 113 118
e 113 119
e 113 120
e 113 121
e 113 122
e 113 123
e 113 124
e 113 125
e 113 126
e 113 127
e 113 128
e 113 129
e 113 130
e 113 131
e 113 132
e 113 133
e 113 134
e 113 135
e 113 136
e 113 137
e 113 138
e 113 139
e 113 140
e 113 141
e 113 142
e 143 144
e 143 145
e 143 146
e 143 147
e 143 148
e 143 149
e 143 150
e 143 151
e 143 152
e 143 153
e 143 154
e 155 156
e 155 157
e 155 158
e 155 159
e 155 160
e 155 161
e 155 162
e 155 163
e 155 164
e 155 165
e 155 166
e 167 168
e 167 169
e 167 170
e 167 171
e 167 172
e 167 173
e 167 174
e 167 175
e 167 176
e 167 177
e 167 178
e 167 179
e 167 180
e 167 181
e 167 182
e 167 183
e 167 184
e 167 185
e 167 186
e 167 187
e 167 188
e 167 189
e 190 191
e 190 192
e 190 193
e 190 194
e 190 195
e 190 196
e 190 197
e 190 198
e 190 199
e 190 200
e 190 201
e 190 202
e 190 203
e 204 205
e 204 206
e 204 207
e 204 208
e 204 209
e 204 210
e 204 211
e 204 212
e 204 213
e 204 214
e 204 215
e 204 216
e 204 217
e 204 218
e 204 219
e 220 221
e 220 222
e 220 223
e 220 224
e 220 225
e 220 226
e 220 227
e 220 228
e 220 229
e 220 230
e 220 231
e 220 232
e 220 233
e 220 234
e 220 235
e 220 236
e 220 237
e 220 238
e 239 240
e 239 241
e 239 242
e 239 243
e 239 244
e 239 245
e 239 246
e 239 247
e 239 248
e 239 249
e 239 250
e 239 251
e 239 252
e 239 253
e 239 254
e 239 255
e 239 256
e 239 257
e 239 258
e 239 259
e 260 261
e 260 262
e 260 263
e 260 264
e 260 265
e 260 266
e 260 267
e 260 268
e 260 269
e 260 270
e 260 271
e 260 272
e 260 273
e 260 274
e 260 275
e 260 276
e 260 277
e 260 278
e 260 279
e 260 280
e 260 281
e 260 282
e 260 283
e 260 284
e 260 285
e 286 287
e 286 288
e 286 289
e 286 290
e 286 291
e 286 292
e 286 293
e 286 294
e 286 295
e 286 296
e 286 297
e 286 298
e 286 299
e 286 300
e 286 301
e 286 302
e 286 303
e 286 304
e 286 305
e 286 306
e 286 307
e 286 308
e 286 309
e 310 311
e 310 312
e 310 313
e 310 314
e 310 315
e 310 316
e 310 317
e 310 318
e 310 319
e 310 320
e 310 321
e 322 323
e 322 324
e 322 325
e 322 326
e 322 327
e 322 328
e 322 329
e 322 330
e 322 331
e 322 332
e 322 333
e 322 334
e 322 335
e 322 336
e 322 337
e 322 338
e 322 339
e 322 340
e 322 341
e 322 342
e 322 343
e 322 344
e 345 346
e 345 347
e 345 348
e 345 349
e 345 350
e 345 351
e 345 352
e 345 353
e 345 354
e 345 355
e 345 356
e 345 357
e 345 358
e 345 359
e 345 360
e 345 361
e 345 362
e 345 363
e 345 364
e 345 365
e 345 366
e 345 367
e 345 368
e 345 369
e 345 370
e 345 371
e 345 372
e 345 373
e 374 375
e 374 376
e 374 377
e 374 378
e 374 379
e 374 380
e 374 381
e 374 382
e 374 383
e 374 384
e 374 385
e 374 386
e 374 387
e 374 388
e 389 390
e 389 391
e 389 392
e 389 393
e 389 394
e 389 395
e 389 396
e 389 397
e 389 398
e 389 399
e 389 400
e 389 401
e 389 402
e 389 403
e 389 404
e 389 405
e 389 406
e 389 407
e 389 408
e 389 409
e 389 410
e 389 411
e 412 413
e 412 414
e 412 415
e 412 416
e 412 417
e 412 418
e 412 419
e 412 420
e 412 421
e 412 422
e 412 423
e 412 424
e 412 425
e 412 426
e 412 427
e 412 428
e 412 429
e 412 430
e 412 431
e 412 432
e 412 433
e 412 434
e 412 435
e 412 436
e 412 437
e 412 438
e 412 439
e 440 441
e 440 442
e 440 443
e 440 444
e 440 445
e 440 446
e 440 447
e 440 448
e 440 449
e 440 450
e 440 451
e 440 452
e 440 453
e 440 454
e 440 455
e 440 456
e 457 458
e 457 459
e 457 460
e 457 461
e 457 462
e 457 463
e 457 464
e 457 465
e 457 466
e 457 467
e 457 468
e 457 469
e 457 470
e 457 471
e 457 472
e 457 473
e 457 474
e 457 475
e 457 476
e 457 477
e 457 478
e 457 479
e 457 480
e 457 481
e 482 483
e 482 484
e 482 485
e 482 486
e 482 487
e 482 488
e 482 489
e 482 490
e 482 491
e 482 492
e 482 493
e 482 494
e 482 495
e 482 496
e 482 497
e 482 498
e 482 499
e 482 500
e 482 501
e 482 502
e 482 503
e 482 504
e 505 506
e 505 507
e 505 508
e 505 509
e 505 510
e 505 511
e 505 512
e 505 513
e 505 514
e 505 515
e 505 516
e 505 517
e 505 518
e 505 519
e 505 520
e 505 521
e 522 523
e 522 524
e 522 525
e 522 526
e 522 527
e 522 528
e 522 529
e 522 530
e 522 531
e 522 532
e 522 533
e 522 534
e 522 535
e 522 536
e 522 537
e 538 539
e 538 540
e 538 541
e 538 542
e 538 543
e 538 544
e 538 545
e 538 546
e 538 547
e 538 548
e 538 549
e 538 550
e 538 551
e 538 552
e 538 553
e 538 554
e 538 555
e 538 556
e 538 557
e 558 559
e 558 560
e 558 561
e 558 562
e 558 563
e 558 564
e 558 565
e 558 566
e 558 567
e 558 568
e 558 569
e 558 570
e 558 571
e 558 572
e 558 573
e 558 574
e 558 575
e 558 576
e 558 577
e 558 578
e 579 580
e 579 581
e 579 582
e 579 583
e 579 584
e 579 585
e 579 586
e 579 587
e 579 588
e 579 589
e 579 590
e 579 591
e 579 592
e 579 593
e 579 594
e 579 595
e 579 596
e 579 597
e 579 598
e 579 599
e 579 600
e 579 601
e 579 602
e 579 603
e 579 604
e 605 606
e 605 607
e 605 608
e 605 609
e 605 610
e 605 611
e 605 612
e 605 613
e 605 614
e 605 615
e 605 616
e 605 617
e 605 618
e 605 619
e 605 620
e 605 621
e 605 622
e 605 623
e 605 624
e 605 625
e 605 626
e 605 627
e 628 629
e 628 630
e 628 631
e 628 632
e 628 633
e 628 634
e 628 635
e 628 636
e 628 637
e 628 638
e 628 639
e 628 640
e 628 641
e 628 642
e 628 643
e 628 644
e 628 645
e 628 646
e 628 647
e 628 648
e 628 649
e 628 650
e 651 652
e 651 653
e 651 654
e 651 655
e 651 656
e 651 657
e 651 658
e 651 659
e 651 660
e 651 661
e 651 662
e 651 663
e 651 664
e 651 665
e 651 666
e 651 667
e 651 668
e 651 669
e 651 670
e 651 671
e 651 672
e 673 674
e 673 675
e 673 676
e 673 677
e 673 678
e 673 679
e 673 680
e 673 681
e 673 682
e 673 683
e 673 684
e 673 685
e 673 686
e 673 687
e 673 688
e 673 689
e 673 690
e 673 691
e 673 692
e 673 693
e 673 694
e 673 695
e 673 696
e 673 697
e 673 698
e 673 699
e 673 700
e 701 702
e 701 703
e 701 704
e 701 705
e 701 706
e 701 707
e 701 708
e 701 709
e 701 710
e 701 711
e 701 712
e 701 713
e 701 714
e 701 715
e 701 716
e 701 717
e 701 718
e 701 719
e 701 720
e 701 721
e 701 722
e 701 723
e 701 724
e 701 725
e 701 726
e 701 727
e 701 728
e 701 729
e 701 730
e 701 731
